INPUT_PARAMETERS
suffix               ABACUS
stru_file            STRU
kpoint_file          KPT
wannier_card         INPUTw
pseudo_dir           /root/deepmodeling/orbgen-v3p0/tests/pporb
calculation          scf
basis_type           lcao
ecutwfc              60
ks_solver            genelpa
nbands               8
scf_thr              1.0e-7
scf_nmax             9000
smearing_method      gauss
smearing_sigma       0.015
mixing_type          broyden
mixing_beta          0.8
mixing_ndim          8
mixing_gg0           0
ntype                1
nspin                1
lmaxmax              2
bessel_nao_rcut      7
gamma_only           1
printe               1
out_chg              -1
out_mat_hs           1 12
out_mat_tk           1 12
out_wfc_lcao         1
orbital_dir          /root/deepmodeling/orbgen-v3p0/tests/integrated/Si_7au_jy/primitive_jy
